
Gurobi 9.5.2 (mac64[arm]) logging started Mon Apr 24 20:43:06 2023

Set parameter LogFile to value "Java/output/pure_mip/scenario_seed_3_nJob_50_machineCount_1/mip_increment_1/log.txt"
Gurobi Optimizer version 9.5.2 build v9.5.2rc0 (mac64[arm])
Thread count: 8 physical cores, 8 logical processors, using up to 8 threads
Optimize a model with 3034 rows, 67104 columns and 841221 nonzeros
Model fingerprint: 0x1e71056e
Variable types: 0 continuous, 67104 integer (67104 binary)
Coefficient statistics:
  Matrix range     [1e+00, 5e+02]
  Objective range  [3e+00, 2e+07]
  Bounds range     [1e+00, 1e+00]
  RHS range        [1e+00, 1e+00]
Presolve removed 31 rows and 3423 columns
Presolve time: 0.83s
Presolved: 3003 rows, 63681 columns, 787251 nonzeros
Variable types: 0 continuous, 63681 integer (63651 binary)

Root simplex log...

Iteration    Objective       Primal Inf.    Dual Inf.      Time
   22763    2.3027455e+04   3.688891e+04   0.000000e+00      5s
   47966    2.6260344e+04   2.504088e+05   0.000000e+00     10s
   66707    2.6607230e+04   8.645498e+03   0.000000e+00     15s
   72429    2.6637316e+04   0.000000e+00   0.000000e+00     17s

Root relaxation: objective 2.663732e+04, 72429 iterations, 15.72 seconds (40.73 work units)

    Nodes    |    Current Node    |     Objective Bounds      |     Work
 Expl Unexpl |  Obj  Depth IntInf | Incumbent    BestBd   Gap | It/Node Time

     0     0 26637.3160    0  490          - 26637.3160      -     -   17s
     0     0 26655.9187    0  738          - 26655.9187      -     -   23s
     0     0 26658.6018    0  780          - 26658.6018      -     -   26s
     0     0 26658.6429    0  785          - 26658.6429      -     -   27s
     0     0 26658.6429    0  786          - 26658.6429      -     -   27s
     0     0 26690.4084    0  819          - 26690.4084      -     -   33s
     0     0 26696.3281    0  866          - 26696.3281      -     -   38s
     0     0 26696.7513    0  866          - 26696.7513      -     -   39s
     0     0 26696.7534    0  888          - 26696.7534      -     -   39s
     0     0 26717.7377    0  921          - 26717.7377      -     -   52s
     0     0 26719.1433    0  930          - 26719.1433      -     -   55s
     0     0 26719.2735    0  946          - 26719.2735      -     -   56s
     0     0 26719.3012    0  949          - 26719.3012      -     -   56s
     0     0 26719.3027    0  941          - 26719.3027      -     -   56s
     0     0 26729.4798    0 1065          - 26729.4798      -     -   64s
     0     0 26730.4151    0 1064          - 26730.4151      -     -   67s
     0     0 26730.7765    0 1089          - 26730.7765      -     -   69s
     0     0 26730.7958    0 1071          - 26730.7958      -     -   70s
     0     0 26734.9778    0 1104          - 26734.9778      -     -   76s
     0     0 26735.9732    0 1159          - 26735.9732      -     -   80s
     0     0 26736.0381    0 1184          - 26736.0381      -     -   81s
     0     0 26736.1714    0 1186          - 26736.1714      -     -   82s
     0     0 26736.1794    0 1182          - 26736.1794      -     -   83s
     0     0 26741.5058    0 1184          - 26741.5058      -     -   91s
     0     0 26743.1281    0 1181          - 26743.1281      -     -   94s
     0     0 26743.4095    0 1222          - 26743.4095      -     -   96s
     0     0 26743.4859    0 1235          - 26743.4859      -     -   97s
     0     0 26743.6181    0 1214          - 26743.6181      -     -   99s
     0     0 26743.6401    0 1229          - 26743.6401      -     -   99s
     0     0 26747.6957    0 1226          - 26747.6957      -     -  107s
     0     0 26748.3056    0 1304          - 26748.3056      -     -  111s
     0     0 26748.4028    0 1265          - 26748.4028      -     -  113s
     0     0 26748.4255    0 1294          - 26748.4255      -     -  114s
     0     0 26750.5509    0 1308          - 26750.5509      -     -  121s
     0     0 26750.9574    0 1309          - 26750.9574      -     -  125s
     0     0 26751.0658    0 1320          - 26751.0658      -     -  126s
     0     0 26751.1585    0 1320          - 26751.1585      -     -  127s
     0     0 26751.2277    0 1329          - 26751.2277      -     -  128s
     0     0 26751.2385    0 1331          - 26751.2385      -     -  129s
     0     0 26757.0011    0 1347          - 26757.0011      -     -  138s
     0     0 26758.2519    0 1320          - 26758.2519      -     -  144s
     0     0 26758.5011    0 1359          - 26758.5011      -     -  146s
     0     0 26758.5796    0 1365          - 26758.5796      -     -  147s
     0     0 26758.6764    0 1357          - 26758.6764      -     -  149s
     0     0 26758.6896    0 1376          - 26758.6896      -     -  150s
     0     0 26767.2761    0 1324          - 26767.2761      -     -  159s
     0     0 26768.5104    0 1380          - 26768.5104      -     -  166s
     0     0 26769.8022    0 1351          - 26769.8022      -     -  175s
     0     0 26769.9487    0 1355          - 26769.9487      -     -  179s
     0     0 26769.9603    0 1365          - 26769.9603      -     -  179s
     0     0 26774.6986    0 1318          - 26774.6986      -     -  195s
     0     0 26775.0841    0 1410          - 26775.0841      -     -  203s
     0     0 26775.2004    0 1381          - 26775.2004      -     -  207s
     0     0 26775.2138    0 1418          - 26775.2138      -     -  208s
     0     0 26778.8919    0 1408          - 26778.8919      -     -  225s
     0     0 26779.2977    0 1427          - 26779.2977      -     -  234s
     0     0 26779.5513    0 1448          - 26779.5513      -     -  240s
     0     0 26779.5877    0 1472          - 26779.5877      -     -  243s
     0     0 26791.0188    0 1411          - 26791.0188      -     -  260s
     0     0 26792.8024    0 1415          - 26792.8024      -     -  267s
     0     0 26793.2529    0 1442          - 26793.2529      -     -  270s
     0     0 26793.3122    0 1446          - 26793.3122      -     -  272s
     0     0 26798.5767    0 1452          - 26798.5767      -     -  291s
     0     0 26799.9719    0 1475          - 26799.9719      -     -  304s
     0     0 26800.3450    0 1492          - 26800.3450      -     -  310s
     0     0 26800.4593    0 1511          - 26800.4593      -     -  312s
     0     0 26800.5340    0 1486          - 26800.5340      -     -  315s
     0     0 26801.8069    0 1493          - 26801.8069      -     -  325s
     0     0 26801.9963    0 1558          - 26801.9963      -     -  328s
     0     0 26802.0172    0 1565          - 26802.0172      -     -  329s
     0     0 26804.1560    0 1522          - 26804.1560      -     -  340s
     0     0 26804.5894    0 1520          - 26804.5894      -     -  351s
     0     0 26804.6524    0 1551          - 26804.6524      -     -  353s
     0     0 26807.1077    0 1540          - 26807.1077      -     -  369s
     0     0 26807.6179    0 1535          - 26807.6179      -     -  374s
     0     0 26808.3963    0 1535          - 26808.3963      -     -  387s
     0     0 26808.8366    0 1544          - 26808.8366      -     -  401s
     0     0 26808.9320    0 1560          - 26808.9320      -     -  408s
     0     0 26810.8426    0 1528          - 26810.8426      -     -  416s
     0     0 26811.2576    0 1565          - 26811.2576      -     -  420s
     0     0 26812.8253    0 1509          - 26812.8253      -     -  429s
     0     0 26813.1207    0 1537          - 26813.1207      -     -  432s
     0     0 26813.1677    0 1578          - 26813.1677      -     -  434s
     0     0 26816.0694    0 1525          - 26816.0694      -     -  442s
     0     0 26816.7450    0 1558          - 26816.7450      -     -  447s
     0     0 26816.8080    0 1558          - 26816.8080      -     -  449s
     0     0 26818.7545    0 1533          - 26818.7545      -     -  458s
     0     0 26818.9608    0 1591          - 26818.9608      -     -  461s
     0     0 26819.0236    0 1630          - 26819.0236      -     -  463s
     0     0 26820.9098    0 1571          - 26820.9098      -     -  471s
     0     0 26821.2025    0 1609          - 26821.2025      -     -  475s
     0     0 26821.2411    0 1605          - 26821.2411      -     -  475s
     0     0 26822.5611    0 1588          - 26822.5611      -     -  484s
     0     0 26822.7885    0 1596          - 26822.7885      -     -  488s
     0     0 26822.8658    0 1627          - 26822.8658      -     -  490s
     0     0 26823.7586    0 1592          - 26823.7586      -     -  498s
     0     0 26823.7586    0 1587          - 26823.7586      -     -  499s
     0     2 26823.8694    0 1587          - 26823.8694      -     -  571s
     1     4 26825.4406    1 1555          - 26823.8694      - 10991  580s
     3     8 26828.1948    2 1461          - 26824.4821      -  8561  589s
     7    13 26829.0162    3 1465          - 26824.6180      -  6556  600s

Cutting planes:
  Cover: 2
  Clique: 361
  MIR: 97
  StrongCG: 22
  GUB cover: 452
  Zero half: 3
  RLT: 6

Explored 12 nodes (759905 simplex iterations) in 600.02 seconds (1778.75 work units)
Thread count was 8 (of 8 available processors)

Solution count 0

Time limit reached
Best objective -, best bound 2.682563595136e+04, gap -
